YauzaCTF/Crypto/Knapsack/Task sources/pubkey.txt
[2948549611747, 2043155587142, 361533419625, 1001380428657, 2438250374319, 1059738568330, 115120002311, 198226659880, 2343897184958, 2592576935132, 2327834076450, 237536244289, 309228208827, 3327276767693, 462372704541, 2176574227058]